\Problem name: model.lp

Minimize
OBJROW:
Subject To
constr(0):  var(0) = 1
constr(1):  = 1
constr(2):  = 1
constr(3):  = 1
constr(4):  = 1
constr(5):  = 1
constr(6):  = 1
constr(7):  = 1
constr(8):  = 1
constr(9):  = 1
constr(10):  = 1
constr(11):  = 1
constr(12):  = 1
constr(13):  = 1
constr(14):  = 1
constr(15):  = 1
constr(16):  = 1
constr(17):  = 1
constr(18):  = 1
constr(19):  = 1
constr(20):  = 1
constr(21):  = 1
constr(22):  = 1
constr(23):  = 1
constr(24):  = 1
constr(25):  = 1
constr(26):  = 1
constr(27):  = 1
constr(28):  = 1
constr(29):  = 1
constr(30):  = 1
constr(31):  = 1
constr(32):  = 1
constr(33):  = 1
constr(34):  = 1
constr(35):  = 1
constr(36):  = 1
constr(37):  = 1
constr(38):  = 1
constr(39):  = 1
constr(40):  = 1
constr(41):  = 1
constr(42):  = 1
constr(43):  = 1
constr(44):  = 1
constr(45):  = 1
constr(46):  = 1
constr(47):  = 1
constr(48):  = 1
constr(49):  = 1
constr(50):  = 1
constr(51):  = 1
constr(52):  var(2) = 1
constr(53):  = 1
constr(54):  = 1
constr(55):  = 1
constr(56):  = 1
constr(57):  = 1
constr(58):  = 1
constr(59):  = 1
constr(60):  = 1
constr(61):  = 1
constr(62):  = 1
constr(63):  = 1
constr(64):  = 1
constr(65):  = 1
constr(66):  = 1
constr(67):  = 1
constr(68):  = 1
constr(69):  = 1
constr(70):  = 1
constr(71):  = 1
constr(72):  = 1
constr(73):  = 1
constr(74):  = 1
constr(75):  var(1) = 1
constr(76):  = 1
constr(77):  = 1
constr(78):  = 1
constr(79):  = 1
constr(80):  = 1
Bounds
 0 <= var(0) <= 1
 0 <= var(1) <= 1
 0 <= var(2) <= 1
 0 <= var(3) <= 1
 0 <= var(4) <= 1
 0 <= var(5) <= 1
 0 <= var(6) <= 1
 0 <= var(7) <= 1
 0 <= var(8) <= 1
Integers
var(0) var(1) var(2) var(3) var(4) var(5) var(6) var(7) var(8) 
End
